NAME: random-38-15666
TYPE: TSP
COMMENT: size=38 seed=15666
DIMENSION: 78
EDGE_WEIGHT_TYPE: EUC_2D
NODE_COORD_SECTION
+0 462 14
-0 462 14
+1 518 942
-1 465 903
+2 991 820
-2 511 251
+3 673 945
-3 803 192
+4 224 874
-4 558 183
+5 418 128
-5 972 890
+6 328 40
-6 254 280
+7 957 462
-7 735 936
+8 175 101
-8 903 704
+9 244 931
-9 939 5
+10 132 928
-10 51 882
+11 728 884
-11 783 833
+12 220 870
-12 137 750
+13 100 722
-13 572 964
+14 797 422
-14 759 42
+15 568 315
-15 698 925
+16 434 612
-16 339 341
+17 839 93
-17 400 347
+18 930 853
-18 637 552
+19 531 728
-19 987 852
+20 294 543
-20 458 771
+21 475 156
-21 79 556
+22 287 228
-22 717 612
+23 477 532
-23 612 265
+24 471 41
-24 15 875
+25 867 892
-25 233 377
+26 266 543
-26 92 903
+27 120 641
-27 592 712
+28 34 312
-28 74 891
+29 778 930
-29 876 571
+30 185 215
-30 842 298
+31 683 48
-31 887 554
+32 45 514
-32 307 985
+33 927 1
-33 354 908
+34 154 975
-34 780 904
+35 72 797
-35 844 922
+36 868 399
-36 253 911
+37 107 505
-37 309 36
+38 92 991
-38 717 392
PRECEDENCE_SECTION
+0 -0
+1 -1
+2 -2
+3 -3
+4 -4
+5 -5
+6 -6
+7 -7
+8 -8
+9 -9
+10 -10
+11 -11
+12 -12
+13 -13
+14 -14
+15 -15
+16 -16
+17 -17
+18 -18
+19 -19
+20 -20
+21 -21
+22 -22
+23 -23
+24 -24
+25 -25
+26 -26
+27 -27
+28 -28
+29 -29
+30 -30
+31 -31
+32 -32
+33 -33
+34 -34
+35 -35
+36 -36
+37 -37
+38 -38
EOF
